




































































































15 55 63 45 32 58 
46 28 4 50 57 2 
68 44 48 21 47 
18 72 12 59 27 17 
60 29 25 36 65 
34 7 69 56 43 3 
39 52 42 54 66 
41 49 51 5 70 31 
6 19 74 20 13 
38 24 37 26 1 71 
22 64 75 33 73 0 
16 11 61 76 30 35 
53 67 8 62 14 
9 40 23 10 
